max

obj:

-0.04 x0
-0.06 x1
-0.01 x2
-0.09 x3
+105.09 x4
+141.92 x5
+133.07 x6
+102.44 x7
+80.07 x8
+78.4 x9
+81.43 x10
+141.42 x11
+95.8 x12
+8.0 x13
+28.0 x14
-0.01 x15
+6.0 x16
+105.09 x17
+141.92 x18
+133.07 x19
+18.0 x20
+28.0 x21
+34.5 x22
+37.0 x23
+141.42 x24
+40.24 x25


s.t.

c0:
+1.0 x0
-1.0 x26
= 1.600000023841858
c1:
+1.0 x1
-1.0 x26
= 3.7320001125335693
c2:
-1.0 x26
+1.0 x2
= 5.045000076293945
c3:
-1.0 x26
+1.0 x3
= 5.538000106811523
c4:
+1.0 x4
-1.0 x26
= 0.8360000252723694
c5:
-1.0 x26
+1.0 x5
= 0.699999988079071
c6:
+1.0 x6
-1.0 x26
= 0.5070000290870667
c7:
+1.0 x7
-1.0 x26
= 0.29100000858306885
c8:
+1.0 x8
-1.0 x26
= 2.3359999656677246
c9:
+1.0 x9
-1.0 x26
= 2.257999897003174
c10:
+1.0 x10
-1.0 x26
= 2.23799991607666
c11:
+1.0 x11
-1.0 x26
= 0.09700000286102295
c12:
+1.0 x12
-1.0 x26
= 0.9399999976158142
c13:
+1.0 x26
<= -0.0


bounds

+0.0 <=  x0 <= +7.2
+0.0 <=  x1 <= +7.2
+0.0 <=  x2 <= +7.2
+0.0 <=  x3 <= +7.2
+0.0 <=  x4 <= +7.2
+0.0 <=  x5 <= +7.2
+0.0 <=  x6 <= +7.2
+0.0 <=  x7 <= +7.2
+0.0 <=  x8 <= +7.2
+0.0 <=  x9 <= +7.2
+0.0 <=  x10 <= +7.2
+0.0 <=  x11 <= +7.2
+0.0 <=  x12 <= +7.2
-7.2 <=  x13 <= +7.2
-7.2 <=  x14 <= +7.2
-7.2 <=  x15 <= +7.2
-7.2 <=  x16 <= +7.2
-7.2 <=  x17 <= +7.2
-7.2 <=  x18 <= +7.2
-7.2 <=  x19 <= +7.2
-7.2 <=  x20 <= +7.2
-7.2 <=  x21 <= +7.2
-7.2 <=  x22 <= +7.2
-7.2 <=  x23 <= +7.2
-7.2 <=  x24 <= +7.2
-7.2 <=  x25 <= +7.2
-7.2 <=  x26 <= +7.2
end
